decision_x1=[0,2];
decision_x2=[0,2];
decision_x3=[0,2];
decision_x4=[0,2];
decision_x5=[0,2];
decision_x6=[0,2];
random_y1=[0,2];
random_y2=[0,2];
constraint_x4_x1=[
0,0,2.4|
0,1,3.3|
0,2,5.5|
1,0,4.2|
1,1,2.6|
1,2,1.9|
2,0,8.3|
2,1,0.27|
2,2,7.9|
];
constraint_x4_x2=[
0,0,5.7|
0,1,8.7|
0,2,5.4|
1,0,3.8|
1,1,2.5|
1,2,6.9|
2,0,2.3|
2,1,3.9|
2,2,7.2|
];
constraint_x5_x3=[
0,0,1.5|
0,1,8.3|
0,2,3.5|
1,0,0.62|
1,1,0.37|
1,2,6.4|
2,0,3.8|
2,1,2.1|
2,2,2.8|
];
constraint_x5_x4=[
0,0,2.9|
0,1,6.4|
0,2,4.8|
1,0,4.4|
1,1,2.7|
1,2,5.2|
2,0,8.3|
2,1,4.7|
2,2,1|
];
constraint_x6_x1=[
0,0,7.8|
0,1,5.7|
0,2,9.8|
1,0,8.5|
1,1,6.5|
1,2,4.7|
2,0,4.8|
2,1,4.3|
2,2,8.1|
];
constraint_x6_x2=[
0,0,4.4|
0,1,0.45|
0,2,5|
1,0,4.8|
1,1,5.2|
1,2,4.7|
2,0,4.4|
2,1,3.1|
2,2,2.4|
];
constraint_x6_x3=[
0,0,9.1|
0,1,3.1|
0,2,10|
1,0,5|
1,1,3.3|
1,2,4.1|
2,0,0.47|
2,1,3.5|
2,2,6|
];
constraint_x6_x4=[
0,0,7.3|
0,1,0.25|
0,2,3.4|
1,0,1.7|
1,1,8.8|
1,2,1.8|
2,0,4.5|
2,1,9.6|
2,2,0.61|
];
constraint_x1_y1=[
0,0,9.6|
0,1,4.9|
0,2,4.5|
1,0,5|
1,1,1.1|
1,2,9.3|
2,0,6.8|
2,1,1.3|
2,2,1.2|
];
constraint_x2_y2=[
0,0,8.5|
0,1,6.3|
0,2,6.7|
1,0,7.5|
1,1,9.9|
1,2,6.8|
2,0,6.9|
2,1,8.6|
2,2,3.5|
];
initial_distribution_y1=[0.22,0.27,0.51];
initial_distribution_y2=[0.36,0.38,0.27];
transition_y1=[
0.3,0.21,0.49|
0.2,0.46,0.34|
0.35,0.34,0.31|
];
transition_y2=[
0.36,0.3,0.34|
0.21,0.37,0.42|
0.49,0.2,0.31|
];
